HUN,8,6,222
2,19,3,29,4,5,1,3,5,2,0,10
5,4,0,22,4,28,2,2,1,6,3,3
0,10,4,24,5,3,1,29,2,24,3,9
0,8,2,26,5,14,4,29,3,2,1,20
0,27,2,23,5,25,1,28,4,21,3,25
2,27,0,6,4,7,3,7,1,2,5,6
3,15,0,17,1,2,5,14,2,29,4,16
3,18,0,12,4,28,1,10,5,2,2,7
